This is Ipopt version 3.10.1, running with linear solver mumps.

Number of nonzeros in equality constraint Jacobian...:      236
Number of nonzeros in inequality constraint Jacobian.:        0
Number of nonzeros in Lagrangian Hessian.............:     5892

Total number of variables............................:      120
                     variables with only lower bounds:        0
                variables with lower and upper bounds:      120
                     variables with only upper bounds:        0
Total number of equality constraints.................:       59
Total number of inequality constraints...............:        0
        inequality constraints with only lower bounds:        0
   inequality constraints with lower and upper bounds:        0
        inequality constraints with only upper bounds:        0

iter    objective    inf_pr   inf_du lg(mu)  ||d||  lg(rg) alpha_du alpha_pr  ls
   0 -4.0348952e-03 1.00e-02 2.72e-03  -1.0 0.00e+00    -  0.00e+00 0.00e+00   0
   1 -4.3591027e-03 4.17e-10 1.03e-02  -1.7 3.69e-02    -  9.32e-01 1.00e+00h  1
   2 -4.2466754e-03 2.48e-10 1.28e-05  -2.5 2.82e-02    -  1.00e+00 1.00e+00f  1
   3 -6.0498960e-03 1.55e-15 1.03e-03  -3.8 4.84e-02    -  8.87e-01 1.00e+00f  1
   4 -6.2099149e-03 6.00e-13 3.18e-03  -5.7 3.18e-03   0.0 1.00e+00 1.00e+00f  1
   5 -6.7749714e-03 3.33e-16 3.56e-03  -5.7 1.07e-02  -0.5 1.00e+00 1.00e+00f  1
   6 -9.7743404e-03 9.94e-13 5.63e-03  -5.7 4.36e-02  -1.0 1.00e+00 1.00e+00f  1
   7 -1.0205478e-02 9.56e-13 5.72e-03  -5.7 2.01e-02  -0.5 1.00e+00 2.48e-01f  1
   8 -1.2112896e-02 1.39e-12 7.28e-03  -5.7 9.82e-02  -1.0 1.00e+00 2.06e-01f  1
   9 -1.2109603e-02 1.39e-12 6.80e-03  -5.7 2.57e-01  -1.5 9.95e-02 1.22e-04f 14
iter    objective    inf_pr   inf_du lg(mu)  ||d||  lg(rg) alpha_du alpha_pr  ls
  10 -1.2305251e-02 1.38e-12 1.45e-02  -5.7 1.85e-01  -1.1 1.00e+00 1.02e-02f  1
  11 -1.6241192e-02 1.46e-12 9.10e-03  -5.7 3.55e-02  -0.6 1.00e+00 1.00e+00f  1
  12 -1.6602355e-02 1.46e-12 3.77e-02  -5.7 7.90e-01  -1.1 4.72e-01 3.54e-03f  1
  13 -1.9674461e-02 8.70e-13 8.22e-03  -5.7 4.87e-02  -0.7 1.00e+00 4.02e-01f  1
  14 -2.2101059e-02 1.13e-13 7.85e-03  -5.7 1.40e-02  -0.3 1.00e+00 8.70e-01f  1
  15 -2.3459830e-02 7.36e-13 1.47e-02  -5.7 6.88e-02  -0.7 1.00e+00 8.89e-02f  1
  16 -2.7803294e-02 2.71e-12 9.95e-03  -5.7 1.92e-02  -0.3 1.00e+00 9.74e-01f  1
  17 -2.9326665e-02 2.59e-12 3.49e-02  -5.7 1.31e-01  -0.8 1.00e+00 4.27e-02f  1
  18 -2.9326227e-02 2.59e-12 2.50e-02  -5.7 2.40e-01  -1.3 1.06e-01 7.63e-06f 18
  19 -3.1803112e-02 2.47e-12 5.32e-02  -5.7 2.08e-01  -0.8 1.00e+00 4.50e-02f  1
iter    objective    inf_pr   inf_du lg(mu)  ||d||  lg(rg) alpha_du alpha_pr  ls
  20 -3.2413886e-02 2.62e-12 1.51e-02  -5.7 3.89e-02  -0.4 1.00e+00 6.07e-02f  1
  21 -3.6158705e-02 4.11e-12 9.02e-02  -5.7 3.53e-01  -0.9 9.70e-01 3.94e-02f  1
  22 -4.0886944e-02 4.85e-12 1.40e-02  -5.7 4.81e-02  -0.5 1.00e+00 3.42e-01f  1
  23 -5.1420465e-02 4.81e-12 1.90e-02  -5.7 3.66e+00  -0.9 1.16e-02 8.29e-03f  1
  24 -5.5888597e-02 4.24e-12 3.12e-02  -5.7 9.83e-02  -0.5 1.00e+00 1.19e-01f  1
  25 -6.0359495e-02 5.25e-12 2.16e-02  -5.7 2.77e-02  -0.1 1.00e+00 4.14e-01f  1
  26 -6.3787402e-02 6.62e-12 2.28e-02  -5.7 1.51e-01  -0.6 1.59e-01 5.79e-02f  1
  27 -6.5852837e-02 6.77e-12 2.78e-02  -5.7 3.65e-02  -0.1 1.00e+00 1.58e-01f  1
  28 -7.1356079e-02 6.20e-12 2.59e-02  -5.7 1.84e-01  -0.6 1.04e-01 8.29e-02f  1
  29 -7.3500651e-02 5.38e-12 2.92e-02  -5.7 4.40e-02  -0.2 1.00e+00 1.33e-01f  1
iter    objective    inf_pr   inf_du lg(mu)  ||d||  lg(rg) alpha_du alpha_pr  ls
  30 -7.6099763e-02 6.19e-12 3.34e-02  -5.7 1.77e-01  -0.7 1.71e-01 3.72e-02f  1
  31 -8.0568920e-02 6.57e-12 3.63e-02  -5.7 4.15e-02  -0.2 1.00e+00 2.85e-01f  1
  32 -8.3690630e-02 6.35e-12 5.47e-02  -5.7 2.78e-01  -0.7 2.76e-01 3.28e-02f  1
  33 -8.7906368e-02 4.67e-12 3.62e-02  -5.7 5.65e-02  -0.3 1.00e+00 2.64e-01f  1
  34 -9.3182590e-02 6.24e-12 7.33e-02  -5.7 3.43e-01  -0.8 5.28e-01 5.69e-02f  1
  35 -9.5375746e-02 5.36e-12 4.24e-02  -5.7 4.94e-02  -0.3 9.76e-01 1.40e-01f  1
  36 -1.0345200e-01 5.01e-12 8.33e-02  -5.7 3.63e-01  -0.8 5.17e-01 6.54e-02f  1
  37 -1.0593324e-01 5.46e-12 5.94e-02  -5.7 5.31e-02  -0.4 5.26e-01 1.35e-01f  1
  38 -1.1780761e-01 5.26e-12 7.81e-02  -5.7 1.39e+00  -0.9 1.73e-01 3.70e-02f  1
  39 -1.2486463e-01 8.42e-12 4.82e-02  -5.7 1.13e-01  -0.4 1.00e+00 2.13e-01f  1
iter    objective    inf_pr   inf_du lg(mu)  ||d||  lg(rg) alpha_du alpha_pr  ls
  40 -1.2224943e-01 7.92e-12 4.45e-02  -5.7 1.30e+00  -0.9 1.58e-02 5.84e-02h  1
  41 -1.2855464e-01 1.05e-11 3.84e-02  -5.7 1.21e-01  -0.5 1.00e+00 1.99e-01f  1
  42 -1.3409693e-01 5.49e-12 2.82e-02  -5.7 3.63e-02  -0.1 1.00e+00 4.75e-01f  1
  43 -1.4818759e-01 1.61e-11 3.05e-02  -5.7 1.45e-01  -0.5 6.62e-01 3.71e-01f  1
  44 -1.5189108e-01 1.58e-11 4.14e-02  -5.7 4.85e-02  -0.1 1.00e+00 2.58e-01f  1
  45 -1.5521373e-01 1.69e-11 6.88e-02  -5.7 1.55e-01  -0.6 6.66e-01 6.43e-02f  1
  46 -1.5566595e-01 1.63e-11 5.34e-02  -5.7 4.26e-02  -0.2 4.70e-01 3.24e-02f  1
  47 -1.6716140e-01 1.35e-11 5.55e-02  -5.7 2.02e-01  -0.6 4.23e-01 1.75e-01f  1
  48 -1.6859107e-01 1.27e-11 4.98e-02  -5.7 5.11e-02  -0.2 5.96e-01 9.00e-02f  1
  49 -1.7489691e-01 1.12e-11 9.35e-02  -5.7 2.00e-01  -0.7 1.00e+00 1.16e-01f  1
iter    objective    inf_pr   inf_du lg(mu)  ||d||  lg(rg) alpha_du alpha_pr  ls
  50 -1.8240741e-01 1.01e-11 2.66e-02  -5.7 4.55e-02  -0.3 1.00e+00 4.94e-01f  1
  51 -1.9686669e-01 1.56e-11 5.96e-02  -5.7 1.87e-01  -0.8 8.24e-01 2.16e-01f  1
  52 -1.9871164e-01 1.44e-11 3.35e-02  -5.7 5.88e-02  -0.3 1.00e+00 8.15e-02f  1
  53 -2.0410706e-01 1.34e-11 1.30e-01  -5.7 2.50e-01  -0.8 1.00e+00 6.50e-02f  1
  54 -2.0525075e-01 1.18e-11 6.29e-02  -5.7 4.44e-02  -0.4 1.00e+00 8.19e-02f  1
  55 -2.1118037e-01 9.67e-12 1.05e-01  -5.7 1.83e-01  -0.9 1.00e+00 1.80e-01f  1
  56 -2.1896303e-01 2.40e-12 1.62e-02  -5.7 4.00e-02  -0.4 1.00e+00 7.51e-01f  1
  57 -2.1965745e-01 2.70e-12 7.97e-02  -5.7 5.47e-01  -0.9 4.80e-01 9.86e-03f  1
  58 -2.2118837e-01 2.27e-12 4.39e-02  -5.7 5.52e-02  -0.5 1.00e+00 1.59e-01f  1
  59 -2.4175745e-01 2.36e-11 1.49e-02  -5.7 1.17e-01  -1.0 1.00e+00 9.07e-01f  1
iter    objective    inf_pr   inf_du lg(mu)  ||d||  lg(rg) alpha_du alpha_pr  ls
  60 -2.5188323e-01 6.68e-12 1.43e-02  -5.7 4.67e-02  -0.5 1.00e+00 1.00e+00f  1
  61 -2.6276000e-01 5.66e-12 2.84e-02  -5.7 5.93e-01  -1.0 7.44e-02 1.53e-01f  1
  62 -2.6441889e-01 6.81e-12 9.94e-02  -5.7 9.89e-02  -0.6 8.30e-01 1.90e-01f  1
  63 -2.6442335e-01 6.81e-12 9.73e-02  -5.7 8.31e-01  -1.1 2.76e-02 4.37e-05f  2
  64 -2.6816911e-01 6.74e-12 3.93e-02  -5.7 6.87e-02  -0.6 1.00e+00 2.04e-01f  1
  65 -2.6573277e-01 6.57e-12 5.97e-02  -5.7 3.18e+00  -1.1 5.17e-03 2.46e-02h  1
  66 -2.6573098e-01 6.57e-12 4.54e-02  -5.7 4.37e+00  -1.6 8.09e-03 4.72e-06f 13
  67 -2.8691716e-01 3.98e-12 2.40e-02  -5.7 2.31e-01  -1.2 3.16e-01 3.94e-01f  1
  68 -2.8733816e-01 3.91e-12 5.44e-02  -5.7 8.42e-02  -0.7 1.00e+00 1.80e-02f  1
  69 -2.9312018e-01 5.67e-12 4.01e-02  -5.7 3.68e-01  -1.2 4.06e-03 5.75e-02f  1
iter    objective    inf_pr   inf_du lg(mu)  ||d||  lg(rg) alpha_du alpha_pr  ls
  70 -2.9366030e-01 5.81e-12 4.50e-02  -5.7 8.48e-02  -0.8 6.51e-01 2.91e-02f  1
  71 -3.1148096e-01 4.68e-12 3.69e-02  -5.7 3.79e-01  -1.3 1.85e-01 1.95e-01f  1
  72 -3.2840704e-01 2.56e-12 2.31e-02  -5.7 1.16e-01  -0.8 3.06e-01 4.54e-01f  1
  73 -3.3899212e-01 2.15e-11 5.41e-02  -5.7 4.32e-02  -0.4 1.95e-01 6.35e-01f  1
  74 -3.7540653e-01 1.91e-11 7.82e-02  -5.7 6.72e-01  -0.9 4.29e-02 1.11e-01f  1
  75 -4.4687163e-01 4.11e-11 1.43e-01  -5.7 1.18e-01  -0.5 2.51e-01 7.50e-01f  1
  76 -4.4685610e-01 4.11e-11 1.49e-01  -5.7 8.96e-02  -0.0 9.52e-02 3.09e-04f  6
  77 -4.4703415e-01 4.10e-11 1.61e-01  -5.7 1.76e-01  -0.5 2.93e-01 3.58e-03f  1
  78 -4.5224807e-01 5.28e-11 1.47e-01  -5.7 5.11e-02  -0.1 8.90e-01 4.00e-01f  1
  79 -4.5578738e-01 5.05e-11 1.33e-01  -5.7 1.93e-01  -0.6 1.11e-01 7.81e-02f  1
iter    objective    inf_pr   inf_du lg(mu)  ||d||  lg(rg) alpha_du alpha_pr  ls
  80 -4.8276135e-01 4.24e-11 1.06e-01  -5.7 9.43e-01  -1.0 7.52e-02 1.61e-01f  1
  81 -4.8274763e-01 4.22e-11 9.45e-02  -5.7 2.78e-01  -1.5 2.96e-01 5.45e-03f  4
  82 -4.8376171e-01 2.84e-11 1.08e-01  -5.7 1.80e-02  -0.2 9.09e-01 3.27e-01f  1
  83 -4.8501529e-01 2.54e-11 9.28e-02  -5.7 2.15e-01  -0.7 2.74e-01 9.28e-02f  1
  84 -4.9113854e-01 4.44e-12 3.00e-02  -5.7 1.02e-01  -1.1 3.69e-01 8.25e-01f  1
  85 -4.9191524e-01 3.69e-12 2.65e-02  -5.7 2.45e-01  -1.6 2.52e-01 1.68e-01f  1
  86 -4.9312217e-01 6.48e-12 4.20e-02  -5.7 3.09e-01  -1.2 1.61e-04 8.86e-02f  1
  87 -4.9311920e-01 6.27e-12 3.85e-02  -5.7 1.97e-01    -  8.40e-04 3.30e-02f  2
  88 -4.9318083e-01 6.18e-12 5.76e-02  -5.7 1.13e-01  -0.8 1.00e+00 1.35e-02f  1
  89 -4.9333932e-01 3.70e-12 1.98e-02  -5.7 4.21e-02    -  1.00e+00 4.02e-01f  1
iter    objective    inf_pr   inf_du lg(mu)  ||d||  lg(rg) alpha_du alpha_pr  ls
  90 -4.9342835e-01 6.22e-13 4.24e-03  -5.7 8.17e-03  -1.2 1.00e+00 8.32e-01f  1
  91 -4.9343811e-01 2.22e-16 2.32e-04  -5.7 1.36e-02    -  1.00e+00 1.00e+00f  1
  92 -4.9343836e-01 1.33e-15 1.66e-05  -5.7 8.65e-04  -1.7 1.00e+00 1.00e+00f  1
  93 -4.9360526e-01 2.22e-13 1.38e-04  -8.6 6.27e-03  -2.2 8.97e-01 9.29e-01f  1
  94 -4.9361367e-01 4.11e-15 2.49e-04  -8.6 1.49e-02    -  9.53e-01 9.82e-01f  1
  95 -4.9361394e-01 3.33e-16 7.73e-06  -8.6 4.51e-04  -1.8 1.00e+00 1.00e+00f  1
  96 -4.9361404e-01 6.14e-13 8.06e-06  -8.6 1.43e-03  -2.3 1.00e+00 1.00e+00h  1
  97 -4.9361398e-01 4.60e-13 1.91e-03  -8.6 3.89e-03    -  1.00e+00 2.50e-01h  3
  98 -4.9361389e-01 4.44e-16 6.16e-06  -8.6 2.96e-03    -  1.00e+00 1.00e+00h  1
  99 -4.9361389e-01 2.22e-16 1.76e-07  -8.6 1.18e-05  -1.8 1.00e+00 1.00e+00h  1
iter    objective    inf_pr   inf_du lg(mu)  ||d||  lg(rg) alpha_du alpha_pr  ls
 100 -4.9361389e-01 5.55e-16 1.16e-07  -8.6 2.32e-05  -2.3 1.00e+00 1.00e+00h  1
 101 -4.9361389e-01 3.33e-16 1.55e-07  -8.6 1.17e-05  -1.9 1.00e+00 1.00e+00h  1
 102 -4.9361389e-01 2.22e-16 3.16e-07  -8.6 7.12e-05  -2.4 1.00e+00 1.00e+00h  1
 103 -4.9361389e-01 2.22e-16 8.44e-05  -8.6 1.45e-04    -  1.00e+00 1.56e-02h  7
 104 -4.9361389e-01 2.22e-16 1.30e-04  -8.6 4.38e-04  -2.8 1.00e+00 5.00e-01h  2
 105 -4.9361389e-01 2.22e-16 4.54e-05  -8.6 7.66e-05    -  1.00e+00 9.54e-07h 21
 106 -4.9361389e-01 6.66e-16 3.81e-07  -8.6 9.56e-05  -2.4 1.00e+00 1.00e+00h  1
 107 -4.9361389e-01 3.33e-16 4.77e-07  -8.6 4.53e-05  -2.0 1.00e+00 1.00e+00H  1
 108 -4.9361389e-01 2.22e-16 1.32e-06  -8.6 3.61e-04  -2.5 1.00e+00 1.00e+00h  1
 109 -4.9361389e-01 2.22e-16 5.56e-04  -8.6 1.25e-03  -2.9 1.00e+00 2.50e-01h  3
iter    objective    inf_pr   inf_du lg(mu)  ||d||  lg(rg) alpha_du alpha_pr  ls
 110 -4.9361389e-01 2.22e-16 1.38e-04  -8.6 2.66e-04    -  1.00e+00 1.25e-01h  4
 111 -4.9361389e-01 2.22e-16 1.38e-04  -8.6 2.33e-04    -  1.00e+00 3.91e-03h  9
 112 -4.9361389e-01 2.22e-16 1.67e-04  -8.6 2.82e-04  -3.4 1.00e+00 3.81e-06h 19
 113 -4.9361389e-01 2.22e-16 1.46e-04  -8.6 2.47e-04  -3.9 1.00e+00 7.63e-06h 18
 114 -4.9361389e-01 8.88e-16 3.89e-08  -8.6 2.37e-04  -4.4 1.00e+00 1.00e+00s 22
 115 -4.9361389e-01 1.55e-15 6.13e-10  -8.6 5.21e-06  -3.9 1.00e+00 1.00e+00s 22

Number of Iterations....: 115

                                   (scaled)                 (unscaled)
Objective...............:  -4.9361388513336635e-01   -4.9361388513336635e-01
Dual infeasibility......:   6.1262269032458287e-10    6.1262269032458287e-10
Constraint violation....:   1.5543122344752192e-15    1.5543122344752192e-15
Complementarity.........:   2.5059035621721336e-09    2.5059035621721336e-09
Overall NLP error.......:   2.5059035621721336e-09    2.5059035621721336e-09


Number of objective function evaluations             = 276
Number of objective gradient evaluations             = 116
Number of equality constraint evaluations            = 276
Number of inequality constraint evaluations          = 0
Number of equality constraint Jacobian evaluations   = 1
Number of inequality constraint Jacobian evaluations = 0
Number of Lagrangian Hessian evaluations             = 115
Total CPU secs in IPOPT (w/o function evaluations)   =      0.410
Total CPU secs in NLP function evaluations           =      8.370

EXIT: Optimal Solution Found.
